
Gurobi 11.0.3 (linux64) logging started Mon Aug 25 16:43:53 2025

Set parameter LogFile to value "/home/yihong/Coding/OR_SUC/SUC_epstheta_results_bigM100000_thread4/case24_ieee_rts_theta0.001_epsilon0.1_gurobi_seed230000_num_gen100_N_WDR50_load_scaling_factor1_ori_eps_T1quadra_cost_bc1.03.txt"
Set parameter TimeLimit to value 3600
Gurobi Optimizer version 11.0.3 build v11.0.3rc0 (linux64 - "Ubuntu 20.04.6 LTS")

CPU model: AMD EPYC 7532 32-Core Processor, instruction set [SSE2|AVX|AVX2]
Thread count: 64 physical cores, 128 logical processors, using up to 4 threads

Academic license 2399124 - for non-commercial use only - registered to yi___@ed.ac.uk
Optimize a model with 1871 rows, 1291 columns and 53206 nonzeros
Model fingerprint: 0x7bd266e4
Model has 100 quadratic constraints
Variable types: 1191 continuous, 100 integer (100 binary)
Coefficient statistics:
  Matrix range     [3e-04, 6e+01]
  QMatrix range    [2e-03, 8e-03]
  QLMatrix range   [3e-01, 6e+01]
  Objective range  [1e+00, 1e+00]
  Bounds range     [1e+00, 1e+00]
  RHS range        [5e-02, 8e+03]
Presolve removed 1625 rows and 750 columns
Presolve time: 0.01s
Presolved: 246 rows, 541 columns, 2090 nonzeros
Presolved model has 100 quadratic constraint(s)
Variable types: 441 continuous, 100 integer (100 binary)

Root relaxation: objective 8.001856e+02, 101 iterations, 0.00 seconds (0.00 work units)

    Nodes    |    Current Node    |     Objective Bounds      |     Work
 Expl Unexpl |  Obj  Depth IntInf | Incumbent    BestBd   Gap | It/Node Time

     0     0  800.18558    0    2          -  800.18558      -     -    0s
     0     0  880.61834    0   46          -  880.61834      -     -    0s
     0     0 6288.41213    0   32          - 6288.41213      -     -    0s
     0     0 6290.37242    0   32          - 6290.37242      -     -    0s
     0     0 14038.0490    0   14          - 14038.0490      -     -    0s
     0     0 14041.3361    0   14          - 14041.3361      -     -    0s
     0     0 14052.6798    0    2          - 14052.6798      -     -    0s
     0     0 14052.6871    0    2          - 14052.6871      -     -    0s
     0     0 14052.6871    0    2          - 14052.6871      -     -    0s
     0     2 14052.6871    0    2          - 14052.6871      -     -    0s
H   23    22                    14063.339048 14055.5095  0.06%   6.7    0s
*   23    22               6    14063.339048 14055.5095  0.06%   7.0    0s

Cutting planes:
  Gomory: 5
  Implied bound: 43
  MIR: 16
  Flow cover: 85
  RLT: 1

Explored 31 nodes (875 simplex iterations) in 0.20 seconds (0.08 work units)
Thread count was 4 (of 128 available processors)

Solution count 1: 14063.3 

Optimal solution found (tolerance 1.00e-03)
Warning: max constraint violation (1.8996e-09) exceeds tolerance
Best objective 1.406333904782e+04, best bound 1.405550951473e+04, gap 0.0557%

Gurobi 11.0.3 (linux64) logging started Mon Aug 25 16:43:54 2025

Set parameter LogFile to value "/home/yihong/Coding/OR_SUC/SUC_epstheta_results_bigM100000_thread4/case24_ieee_rts_theta0.001_epsilon0.1_gurobi_seed230000_num_gen100_N_WDR50_load_scaling_factor1_ori_eps_T1quadra_cost_bc1.03.txt"
Set parameter TimeLimit to value 3600
Gurobi Optimizer version 11.0.3 build v11.0.3rc0 (linux64 - "Ubuntu 20.04.6 LTS")

CPU model: AMD EPYC 7532 32-Core Processor, instruction set [SSE2|AVX|AVX2]
Thread count: 64 physical cores, 128 logical processors, using up to 4 threads

Academic license 2399124 - for non-commercial use only - registered to yi___@ed.ac.uk
Optimize a model with 5303 rows, 1292 columns and 424551 nonzeros
Model fingerprint: 0x2af7feb5
Model has 101 quadratic constraints
Variable types: 1192 continuous, 100 integer (100 binary)
Coefficient statistics:
  Matrix range     [3e-04, 6e+01]
  QMatrix range    [2e-03, 5e+01]
  QLMatrix range   [3e-01, 6e+01]
  Objective range  [1e+00, 1e+00]
  Bounds range     [1e-01, 1e+00]
  RHS range        [2e-01, 1e+04]
  QRHS range       [5e-02, 5e-02]
Presolve removed 1580 rows and 709 columns
Presolve time: 0.21s
Presolved: 3825 rows, 684 columns, 85338 nonzeros
Presolved model has 100 quadratic constraint(s)
Presolved model has 1 bilinear constraint(s)
Warning: Model contains variables with very large bounds participating
         in product terms.
         Presolve was not able to compute smaller bounds for these variables.
         Consider bounding these variables or reformulating the model.


Solving non-convex MIQCP

Variable types: 584 continuous, 100 integer (100 binary)

Root relaxation: objective 0.000000e+00, 209 iterations, 0.04 seconds (0.08 work units)

    Nodes    |    Current Node    |     Objective Bounds      |     Work
 Expl Unexpl |  Obj  Depth IntInf | Incumbent    BestBd   Gap | It/Node Time

     0     0    0.00000    0    3          -    0.00000      -     -    0s
     0     0    0.00000    0    2          -    0.00000      -     -    1s
     0     0    0.00002    0    3          -    0.00002      -     -    1s
H    0     0                       0.0995215    0.00002   100%     -    1s
     0     0    0.00002    0    3    0.09952    0.00002   100%     -    1s
     0     0    0.00012    0    2    0.09952    0.00012   100%     -    1s
     0     0    0.00012    0    2    0.09952    0.00012   100%     -    1s
H    0     0                       0.0976473    0.00012   100%     -    1s
     0     0    0.00012    0    2    0.09765    0.00012   100%     -    1s
     0     0    0.00012    0    2    0.09765    0.00012   100%     -    1s
     0     0    0.00012    0    2    0.09765    0.00012   100%     -    1s
     0     0    0.00012    0    2    0.09765    0.00012   100%     -    1s
     0     0    0.00589    0    2    0.09765    0.00589  94.0%     -    1s
     0     0    0.00937    0    2    0.09765    0.00937  90.4%     -    1s
     0     0    0.00937    0    2    0.09765    0.00937  90.4%     -    1s
H    0     0                       0.0431801    0.00937  78.3%     -    2s
     0     2    0.00937    0    2    0.04318    0.00937  78.3%     -    2s

Cutting planes:
  Implied bound: 3
  Flow cover: 3
  RLT: 2

Explored 10 nodes (706 simplex iterations) in 3.04 seconds (2.99 work units)
Thread count was 4 (of 128 available processors)

Solution count 3: 0.0431801 0.0976473 0.0995215 

Optimal solution found (tolerance 1.00e-03)
Best objective 4.318008899382e-02, best bound 4.317744470322e-02, gap 0.0061%
